# Solution for model r3_t18_m4_8
# Finished Task: 17 / 18
# Makespan: 735.0, Total Distance: 1147.0, Total Time: 0.2278
# R O S F
0 0 6 0.0 0.0
1 1 18 0.0 0.0
2 2 3 0.0 0.0
3 2 16 144.0 173.0
4 2 12 521.0 558.0
5 -1 -1 -1.0 -1.0
6 0 8 66.0 105.0
7 0 20 413.0 443.0
8 0 7 355.0 392.0
9 1 -1 704.0 735.0
10 2 4 456.0 495.0
11 0 13 631.0 668.0
12 2 -1 667.0 693.0
13 0 -1 697.0 730.0
14 1 17 392.0 423.0
15 2 10 377.0 412.0
16 2 15 224.0 252.0
17 1 19 522.0 549.0
18 1 14 105.0 131.0
19 1 9 625.0 657.0
20 0 11 495.0 529.0
